lps/t_ID000M003J005_ZintFalse_minla_fav.lp
\ This file has been generated by DOcplex
\ ENCODING=ISO-8859-1
\Problem name: minla_fav

Minimize
 obj: cmax
Subject To
 c1: x_1_0 - x_0_0 >= 1
 c2: x_2_0 - x_1_0 >= 3
 c3: x_0_1 - x_1_1 >= 8
 c4: x_2_1 - x_0_1 >= 5
 c5: x_2_2 - x_0_2 >= 5
 c6: x_1_2 - x_2_2 >= 4
 c7: x_0_3 - x_2_3 >= 4
 c8: x_1_3 - x_0_3 >= 10
 c9: x_2_4 - x_1_4 >= 8
 c10: x_0_4 - x_2_4 >= 3
 c11: x_0_1 - x_0_0 - 84 z_0_0_1 - 5 z_0_0_2 - 10 z_0_0_3 - 7 z_0_0_4
      + 5 s_0_2_0_1 + 10 s_0_3_0_1 + 7 s_0_4_0_1 >= -83
 c12: x_0_0 - x_0_1 + 84 z_0_0_1 - 5 z_0_1_2 - 10 z_0_1_3 - 7 z_0_1_4
      + 5 s_0_2_0_1 + 10 s_0_3_0_1 + 7 s_0_4_0_1 >= 5
 c13: x_0_2 - x_0_0 - 84 z_0_0_2 - 10 z_0_0_3 - 7 z_0_0_4 - 5 s_0_1_0_2
      + 10 s_0_3_0_2 + 7 s_0_4_0_2 >= -83
 c14: x_0_0 - x_0_2 + 5 z_0_0_1 + 84 z_0_0_2 + 5 z_0_1_2 - 10 z_0_2_3
      - 7 z_0_2_4 - 5 s_0_1_0_2 + 10 s_0_3_0_2 + 7 s_0_4_0_2 >= 10
 c15: x_0_3 - x_0_0 - 84 z_0_0_3 - 7 z_0_0_4 - 5 s_0_1_0_3 - 5 s_0_2_0_3
      + 7 s_0_4_0_3 >= -83
 c16: x_0_0 - x_0_3 + 5 z_0_0_1 + 5 z_0_0_2 + 84 z_0_0_3 + 5 z_0_1_3 + 5 z_0_2_3
      - 7 z_0_3_4 - 5 s_0_1_0_3 - 5 s_0_2_0_3 + 7 s_0_4_0_3 >= 20
 c17: x_0_4 - x_0_0 - 84 z_0_0_4 - 5 s_0_1_0_4 - 5 s_0_2_0_4 - 10 s_0_3_0_4 >= 
      -83
 c18: x_0_0 - x_0_4 + 5 z_0_0_1 + 5 z_0_0_2 + 10 z_0_0_3 + 84 z_0_0_4
      + 5 z_0_1_4 + 5 z_0_2_4 + 10 z_0_3_4 - 5 s_0_1_0_4 - 5 s_0_2_0_4
      - 10 s_0_3_0_4 >= 27
 c19: x_0_2 - x_0_1 - z_0_0_2 - 84 z_0_1_2 - 10 z_0_1_3 - 7 z_0_1_4 + s_0_0_1_2
      + 10 s_0_3_1_2 + 7 s_0_4_1_2 >= -79
 c20: x_0_1 - x_0_2 - z_0_0_1 + 84 z_0_1_2 - 10 z_0_2_3 - 7 z_0_2_4 + s_0_0_1_2
      + 10 s_0_3_1_2 + 7 s_0_4_1_2 >= 5
 c21: x_0_3 - x_0_1 - z_0_0_3 - 84 z_0_1_3 - 7 z_0_1_4 + s_0_0_1_3 - 5 s_0_2_1_3
      + 7 s_0_4_1_3 >= -79
 c22: x_0_1 - x_0_3 - z_0_0_1 + 5 z_0_1_2 + 84 z_0_1_3 + 5 z_0_2_3 - 7 z_0_3_4
      + s_0_0_1_3 - 5 s_0_2_1_3 + 7 s_0_4_1_3 >= 15
 c23: x_0_4 - x_0_1 - z_0_0_4 - 84 z_0_1_4 + s_0_0_1_4 - 5 s_0_2_1_4
      - 10 s_0_3_1_4 >= -79
 c24: x_0_1 - x_0_4 - z_0_0_1 + 5 z_0_1_2 + 10 z_0_1_3 + 84 z_0_1_4 + 5 z_0_2_4
      + 10 z_0_3_4 + s_0_0_1_4 - 5 s_0_2_1_4 - 10 s_0_3_1_4 >= 22
 c25: x_0_3 - x_0_2 - z_0_0_3 - 5 z_0_1_3 - 84 z_0_2_3 - 7 z_0_2_4 + s_0_0_2_3
      + 5 s_0_1_2_3 + 7 s_0_4_2_3 >= -79
 c26: x_0_2 - x_0_3 - z_0_0_2 - 5 z_0_1_2 + 84 z_0_2_3 - 7 z_0_3_4 + s_0_0_2_3
      + 5 s_0_1_2_3 + 7 s_0_4_2_3 >= 10
 c27: x_0_4 - x_0_2 - z_0_0_4 - 5 z_0_1_4 - 84 z_0_2_4 + s_0_0_2_4 + 5 s_0_1_2_4
      - 10 s_0_3_2_4 >= -79
 c28: x_0_2 - x_0_4 - z_0_0_2 - 5 z_0_1_2 + 10 z_0_2_3 + 84 z_0_2_4 + 10 z_0_3_4
      + s_0_0_2_4 + 5 s_0_1_2_4 - 10 s_0_3_2_4 >= 17
 c29: x_0_4 - x_0_3 - z_0_0_4 - 5 z_0_1_4 - 5 z_0_2_4 - 84 z_0_3_4 + s_0_0_3_4
      + 5 s_0_1_3_4 + 5 s_0_2_3_4 >= -74
 c30: x_0_3 - x_0_4 - z_0_0_3 - 5 z_0_1_3 - 5 z_0_2_3 + 84 z_0_3_4 + s_0_0_3_4
      + 5 s_0_1_3_4 + 5 s_0_2_3_4 >= 7
 c31: x_1_1 - x_1_0 - 84 z_1_0_1 - 8 z_1_0_2 - 6 z_1_0_3 - 8 z_1_0_4
      + 8 s_1_2_0_1 + 6 s_1_3_0_1 + 8 s_1_4_0_1 >= -81
 c32: x_1_0 - x_1_1 + 84 z_1_0_1 - 8 z_1_1_2 - 6 z_1_1_3 - 8 z_1_1_4
      + 8 s_1_2_0_1 + 6 s_1_3_0_1 + 8 s_1_4_0_1 >= 8
 c33: x_1_2 - x_1_0 - 84 z_1_0_2 - 6 z_1_0_3 - 8 z_1_0_4 - 8 s_1_1_0_2
      + 6 s_1_3_0_2 + 8 s_1_4_0_2 >= -81
 c34: x_1_0 - x_1_2 + 8 z_1_0_1 + 84 z_1_0_2 + 8 z_1_1_2 - 6 z_1_2_3 - 8 z_1_2_4
      - 8 s_1_1_0_2 + 6 s_1_3_0_2 + 8 s_1_4_0_2 >= 16
 c35: x_1_3 - x_1_0 - 84 z_1_0_3 - 8 z_1_0_4 - 8 s_1_1_0_3 - 8 s_1_2_0_3
      + 8 s_1_4_0_3 >= -81
 c36: x_1_0 - x_1_3 + 8 z_1_0_1 + 8 z_1_0_2 + 84 z_1_0_3 + 8 z_1_1_3 + 8 z_1_2_3
      - 8 z_1_3_4 - 8 s_1_1_0_3 - 8 s_1_2_0_3 + 8 s_1_4_0_3 >= 22
 c37: x_1_4 - x_1_0 - 84 z_1_0_4 - 8 s_1_1_0_4 - 8 s_1_2_0_4 - 6 s_1_3_0_4 >= 
      -81
 c38: x_1_0 - x_1_4 + 8 z_1_0_1 + 8 z_1_0_2 + 6 z_1_0_3 + 84 z_1_0_4 + 8 z_1_1_4
      + 8 z_1_2_4 + 6 z_1_3_4 - 8 s_1_1_0_4 - 8 s_1_2_0_4 - 6 s_1_3_0_4 >= 30
 c39: x_1_2 - x_1_1 - 3 z_1_0_2 - 84 z_1_1_2 - 6 z_1_1_3 - 8 z_1_1_4
      + 3 s_1_0_1_2 + 6 s_1_3_1_2 + 8 s_1_4_1_2 >= -76
 c40: x_1_1 - x_1_2 - 3 z_1_0_1 + 84 z_1_1_2 - 6 z_1_2_3 - 8 z_1_2_4
      + 3 s_1_0_1_2 + 6 s_1_3_1_2 + 8 s_1_4_1_2 >= 8
 c41: x_1_3 - x_1_1 - 3 z_1_0_3 - 84 z_1_1_3 - 8 z_1_1_4 + 3 s_1_0_1_3
      - 8 s_1_2_1_3 + 8 s_1_4_1_3 >= -76
 c42: x_1_1 - x_1_3 - 3 z_1_0_1 + 8 z_1_1_2 + 84 z_1_1_3 + 8 z_1_2_3 - 8 z_1_3_4
      + 3 s_1_0_1_3 - 8 s_1_2_1_3 + 8 s_1_4_1_3 >= 14
 c43: x_1_4 - x_1_1 - 3 z_1_0_4 - 84 z_1_1_4 + 3 s_1_0_1_4 - 8 s_1_2_1_4
      - 6 s_1_3_1_4 >= -76
 c44: x_1_1 - x_1_4 - 3 z_1_0_1 + 8 z_1_1_2 + 6 z_1_1_3 + 84 z_1_1_4 + 8 z_1_2_4
      + 6 z_1_3_4 + 3 s_1_0_1_4 - 8 s_1_2_1_4 - 6 s_1_3_1_4 >= 22
 c45: x_1_3 - x_1_2 - 3 z_1_0_3 - 8 z_1_1_3 - 84 z_1_2_3 - 8 z_1_2_4
      + 3 s_1_0_2_3 + 8 s_1_1_2_3 + 8 s_1_4_2_3 >= -76
 c46: x_1_2 - x_1_3 - 3 z_1_0_2 - 8 z_1_1_2 + 84 z_1_2_3 - 8 z_1_3_4
      + 3 s_1_0_2_3 + 8 s_1_1_2_3 + 8 s_1_4_2_3 >= 6
 c47: x_1_4 - x_1_2 - 3 z_1_0_4 - 8 z_1_1_4 - 84 z_1_2_4 + 3 s_1_0_2_4
      + 8 s_1_1_2_4 - 6 s_1_3_2_4 >= -76
 c48: x_1_2 - x_1_4 - 3 z_1_0_2 - 8 z_1_1_2 + 6 z_1_2_3 + 84 z_1_2_4 + 6 z_1_3_4
      + 3 s_1_0_2_4 + 8 s_1_1_2_4 - 6 s_1_3_2_4 >= 14
 c49: x_1_4 - x_1_3 - 3 z_1_0_4 - 8 z_1_1_4 - 8 z_1_2_4 - 84 z_1_3_4
      + 3 s_1_0_3_4 + 8 s_1_1_3_4 + 8 s_1_2_3_4 >= -78
 c50: x_1_3 - x_1_4 - 3 z_1_0_3 - 8 z_1_1_3 - 8 z_1_2_3 + 84 z_1_3_4
      + 3 s_1_0_3_4 + 8 s_1_1_3_4 + 8 s_1_2_3_4 >= 8
 c51: x_2_1 - x_2_0 - 84 z_2_0_1 - 4 z_2_0_2 - 4 z_2_0_3 - 3 z_2_0_4
      + 4 s_2_2_0_1 + 4 s_2_3_0_1 + 3 s_2_4_0_1 >= -82
 c52: x_2_0 - x_2_1 + 84 z_2_0_1 - 4 z_2_1_2 - 4 z_2_1_3 - 3 z_2_1_4
      + 4 s_2_2_0_1 + 4 s_2_3_0_1 + 3 s_2_4_0_1 >= 10
 c53: x_2_2 - x_2_0 - 84 z_2_0_2 - 4 z_2_0_3 - 3 z_2_0_4 - 10 s_2_1_0_2
      + 4 s_2_3_0_2 + 3 s_2_4_0_2 >= -82
 c54: x_2_0 - x_2_2 + 10 z_2_0_1 + 84 z_2_0_2 + 10 z_2_1_2 - 4 z_2_2_3
      - 3 z_2_2_4 - 10 s_2_1_0_2 + 4 s_2_3_0_2 + 3 s_2_4_0_2 >= 14
 c55: x_2_3 - x_2_0 - 84 z_2_0_3 - 3 z_2_0_4 - 10 s_2_1_0_3 - 4 s_2_2_0_3
      + 3 s_2_4_0_3 >= -82
 c56: x_2_0 - x_2_3 + 10 z_2_0_1 + 4 z_2_0_2 + 84 z_2_0_3 + 10 z_2_1_3
      + 4 z_2_2_3 - 3 z_2_3_4 - 10 s_2_1_0_3 - 4 s_2_2_0_3 + 3 s_2_4_0_3 >= 18
 c57: x_2_4 - x_2_0 - 84 z_2_0_4 - 10 s_2_1_0_4 - 4 s_2_2_0_4 - 4 s_2_3_0_4 >= 
      -82
 c58: x_2_0 - x_2_4 + 10 z_2_0_1 + 4 z_2_0_2 + 4 z_2_0_3 + 84 z_2_0_4
      + 10 z_2_1_4 + 4 z_2_2_4 + 4 z_2_3_4 - 10 s_2_1_0_4 - 4 s_2_2_0_4
      - 4 s_2_3_0_4 >= 21
 c59: x_2_2 - x_2_1 - 2 z_2_0_2 - 84 z_2_1_2 - 4 z_2_1_3 - 3 z_2_1_4
      + 2 s_2_0_1_2 + 4 s_2_3_1_2 + 3 s_2_4_1_2 >= -74
 c60: x_2_1 - x_2_2 - 2 z_2_0_1 + 84 z_2_1_2 - 4 z_2_2_3 - 3 z_2_2_4
      + 2 s_2_0_1_2 + 4 s_2_3_1_2 + 3 s_2_4_1_2 >= 4
 c61: x_2_3 - x_2_1 - 2 z_2_0_3 - 84 z_2_1_3 - 3 z_2_1_4 + 2 s_2_0_1_3
      - 4 s_2_2_1_3 + 3 s_2_4_1_3 >= -74
 c62: x_2_1 - x_2_3 - 2 z_2_0_1 + 4 z_2_1_2 + 84 z_2_1_3 + 4 z_2_2_3 - 3 z_2_3_4
      + 2 s_2_0_1_3 - 4 s_2_2_1_3 + 3 s_2_4_1_3 >= 8
 c63: x_2_4 - x_2_1 - 2 z_2_0_4 - 84 z_2_1_4 + 2 s_2_0_1_4 - 4 s_2_2_1_4
      - 4 s_2_3_1_4 >= -74
 c64: x_2_1 - x_2_4 - 2 z_2_0_1 + 4 z_2_1_2 + 4 z_2_1_3 + 84 z_2_1_4 + 4 z_2_2_4
      + 4 z_2_3_4 + 2 s_2_0_1_4 - 4 s_2_2_1_4 - 4 s_2_3_1_4 >= 11
 c65: x_2_3 - x_2_2 - 2 z_2_0_3 - 10 z_2_1_3 - 84 z_2_2_3 - 3 z_2_2_4
      + 2 s_2_0_2_3 + 10 s_2_1_2_3 + 3 s_2_4_2_3 >= -80
 c66: x_2_2 - x_2_3 - 2 z_2_0_2 - 10 z_2_1_2 + 84 z_2_2_3 - 3 z_2_3_4
      + 2 s_2_0_2_3 + 10 s_2_1_2_3 + 3 s_2_4_2_3 >= 4
 c67: x_2_4 - x_2_2 - 2 z_2_0_4 - 10 z_2_1_4 - 84 z_2_2_4 + 2 s_2_0_2_4
      + 10 s_2_1_2_4 - 4 s_2_3_2_4 >= -80
 c68: x_2_2 - x_2_4 - 2 z_2_0_2 - 10 z_2_1_2 + 4 z_2_2_3 + 84 z_2_2_4
      + 4 z_2_3_4 + 2 s_2_0_2_4 + 10 s_2_1_2_4 - 4 s_2_3_2_4 >= 7
 c69: x_2_4 - x_2_3 - 2 z_2_0_4 - 10 z_2_1_4 - 4 z_2_2_4 - 84 z_2_3_4
      + 2 s_2_0_3_4 + 10 s_2_1_3_4 + 4 s_2_2_3_4 >= -80
 c70: x_2_3 - x_2_4 - 2 z_2_0_3 - 10 z_2_1_3 - 4 z_2_2_3 + 84 z_2_3_4
      + 2 s_2_0_3_4 + 10 s_2_1_3_4 + 4 s_2_2_3_4 >= 3
 c71: s_0_2_0_1 - z_0_0_2 - z_0_1_2 >= -1
 c72: s_0_3_0_1 - z_0_0_3 - z_0_1_3 >= -1
 c73: s_0_4_0_1 - z_0_0_4 - z_0_1_4 >= -1
 c74: s_0_1_0_2 - z_0_0_1 - z_0_1_2 >= -1
 c75: s_0_3_0_2 - z_0_0_3 - z_0_2_3 >= -1
 c76: s_0_4_0_2 - z_0_0_4 - z_0_2_4 >= -1
 c77: s_0_1_0_3 - z_0_0_1 - z_0_1_3 >= -1
 c78: s_0_2_0_3 - z_0_0_2 - z_0_2_3 >= -1
 c79: s_0_4_0_3 - z_0_0_4 - z_0_3_4 >= -1
 c80: s_0_1_0_4 - z_0_0_1 - z_0_1_4 >= -1
 c81: s_0_2_0_4 - z_0_0_2 - z_0_2_4 >= -1
 c82: s_0_3_0_4 - z_0_0_3 - z_0_3_4 >= -1
 c83: s_0_0_1_2 - z_0_0_1 - z_0_0_2 >= -1
 c84: s_0_3_1_2 - z_0_1_3 - z_0_2_3 >= -1
 c85: s_0_4_1_2 - z_0_1_4 - z_0_2_4 >= -1
 c86: s_0_0_1_3 - z_0_0_1 - z_0_0_3 >= -1
 c87: s_0_2_1_3 - z_0_1_2 - z_0_2_3 >= -1
 c88: s_0_4_1_3 - z_0_1_4 - z_0_3_4 >= -1
 c89: s_0_0_1_4 - z_0_0_1 - z_0_0_4 >= -1
 c90: s_0_2_1_4 - z_0_1_2 - z_0_2_4 >= -1
 c91: s_0_3_1_4 - z_0_1_3 - z_0_3_4 >= -1
 c92: s_0_0_2_3 - z_0_0_2 - z_0_0_3 >= -1
 c93: s_0_1_2_3 - z_0_1_2 - z_0_1_3 >= -1
 c94: s_0_4_2_3 - z_0_2_4 - z_0_3_4 >= -1
 c95: s_0_0_2_4 - z_0_0_2 - z_0_0_4 >= -1
 c96: s_0_1_2_4 - z_0_1_2 - z_0_1_4 >= -1
 c97: s_0_3_2_4 - z_0_2_3 - z_0_3_4 >= -1
 c98: s_0_0_3_4 - z_0_0_3 - z_0_0_4 >= -1
 c99: s_0_1_3_4 - z_0_1_3 - z_0_1_4 >= -1
 c100: s_0_2_3_4 - z_0_2_3 - z_0_2_4 >= -1
 c101: s_1_2_0_1 - z_1_0_2 - z_1_1_2 >= -1
 c102: s_1_3_0_1 - z_1_0_3 - z_1_1_3 >= -1
 c103: s_1_4_0_1 - z_1_0_4 - z_1_1_4 >= -1
 c104: s_1_1_0_2 - z_1_0_1 - z_1_1_2 >= -1
 c105: s_1_3_0_2 - z_1_0_3 - z_1_2_3 >= -1
 c106: s_1_4_0_2 - z_1_0_4 - z_1_2_4 >= -1
 c107: s_1_1_0_3 - z_1_0_1 - z_1_1_3 >= -1
 c108: s_1_2_0_3 - z_1_0_2 - z_1_2_3 >= -1
 c109: s_1_4_0_3 - z_1_0_4 - z_1_3_4 >= -1
 c110: s_1_1_0_4 - z_1_0_1 - z_1_1_4 >= -1
 c111: s_1_2_0_4 - z_1_0_2 - z_1_2_4 >= -1
 c112: s_1_3_0_4 - z_1_0_3 - z_1_3_4 >= -1
 c113: s_1_0_1_2 - z_1_0_1 - z_1_0_2 >= -1
 c114: s_1_3_1_2 - z_1_1_3 - z_1_2_3 >= -1
 c115: s_1_4_1_2 - z_1_1_4 - z_1_2_4 >= -1
 c116: s_1_0_1_3 - z_1_0_1 - z_1_0_3 >= -1
 c117: s_1_2_1_3 - z_1_1_2 - z_1_2_3 >= -1
 c118: s_1_4_1_3 - z_1_1_4 - z_1_3_4 >= -1
 c119: s_1_0_1_4 - z_1_0_1 - z_1_0_4 >= -1
 c120: s_1_2_1_4 - z_1_1_2 - z_1_2_4 >= -1
 c121: s_1_3_1_4 - z_1_1_3 - z_1_3_4 >= -1
 c122: s_1_0_2_3 - z_1_0_2 - z_1_0_3 >= -1
 c123: s_1_1_2_3 - z_1_1_2 - z_1_1_3 >= -1
 c124: s_1_4_2_3 - z_1_2_4 - z_1_3_4 >= -1
 c125: s_1_0_2_4 - z_1_0_2 - z_1_0_4 >= -1
 c126: s_1_1_2_4 - z_1_1_2 - z_1_1_4 >= -1
 c127: s_1_3_2_4 - z_1_2_3 - z_1_3_4 >= -1
 c128: s_1_0_3_4 - z_1_0_3 - z_1_0_4 >= -1
 c129: s_1_1_3_4 - z_1_1_3 - z_1_1_4 >= -1
 c130: s_1_2_3_4 - z_1_2_3 - z_1_2_4 >= -1
 c131: s_2_2_0_1 - z_2_0_2 - z_2_1_2 >= -1
 c132: s_2_3_0_1 - z_2_0_3 - z_2_1_3 >= -1
 c133: s_2_4_0_1 - z_2_0_4 - z_2_1_4 >= -1
 c134: s_2_1_0_2 - z_2_0_1 - z_2_1_2 >= -1
 c135: s_2_3_0_2 - z_2_0_3 - z_2_2_3 >= -1
 c136: s_2_4_0_2 - z_2_0_4 - z_2_2_4 >= -1
 c137: s_2_1_0_3 - z_2_0_1 - z_2_1_3 >= -1
 c138: s_2_2_0_3 - z_2_0_2 - z_2_2_3 >= -1
 c139: s_2_4_0_3 - z_2_0_4 - z_2_3_4 >= -1
 c140: s_2_1_0_4 - z_2_0_1 - z_2_1_4 >= -1
 c141: s_2_2_0_4 - z_2_0_2 - z_2_2_4 >= -1
 c142: s_2_3_0_4 - z_2_0_3 - z_2_3_4 >= -1
 c143: s_2_0_1_2 - z_2_0_1 - z_2_0_2 >= -1
 c144: s_2_3_1_2 - z_2_1_3 - z_2_2_3 >= -1
 c145: s_2_4_1_2 - z_2_1_4 - z_2_2_4 >= -1
 c146: s_2_0_1_3 - z_2_0_1 - z_2_0_3 >= -1
 c147: s_2_2_1_3 - z_2_1_2 - z_2_2_3 >= -1
 c148: s_2_4_1_3 - z_2_1_4 - z_2_3_4 >= -1
 c149: s_2_0_1_4 - z_2_0_1 - z_2_0_4 >= -1
 c150: s_2_2_1_4 - z_2_1_2 - z_2_2_4 >= -1
 c151: s_2_3_1_4 - z_2_1_3 - z_2_3_4 >= -1
 c152: s_2_0_2_3 - z_2_0_2 - z_2_0_3 >= -1
 c153: s_2_1_2_3 - z_2_1_2 - z_2_1_3 >= -1
 c154: s_2_4_2_3 - z_2_2_4 - z_2_3_4 >= -1
 c155: s_2_0_2_4 - z_2_0_2 - z_2_0_4 >= -1
 c156: s_2_1_2_4 - z_2_1_2 - z_2_1_4 >= -1
 c157: s_2_3_2_4 - z_2_2_3 - z_2_3_4 >= -1
 c158: s_2_0_3_4 - z_2_0_3 - z_2_0_4 >= -1
 c159: s_2_1_3_4 - z_2_1_3 - z_2_1_4 >= -1
 c160: s_2_2_3_4 - z_2_2_3 - z_2_2_4 >= -1
 c161: x_0_0 + 5 z_0_0_1 + 5 z_0_0_2 + 10 z_0_0_3 + 7 z_0_0_4 >= 27
 c162: x_0_1 - z_0_0_1 + 5 z_0_1_2 + 10 z_0_1_3 + 7 z_0_1_4 >= 22
 c163: x_0_2 - z_0_0_2 - 5 z_0_1_2 + 10 z_0_2_3 + 7 z_0_2_4 >= 17
 c164: x_0_3 - z_0_0_3 - 5 z_0_1_3 - 5 z_0_2_3 + 7 z_0_3_4 >= 7
 c165: x_0_4 - z_0_0_4 - 5 z_0_1_4 - 5 z_0_2_4 - 10 z_0_3_4 >= 0
 c166: x_1_0 + 8 z_1_0_1 + 8 z_1_0_2 + 6 z_1_0_3 + 8 z_1_0_4 >= 30
 c167: x_1_1 - 3 z_1_0_1 + 8 z_1_1_2 + 6 z_1_1_3 + 8 z_1_1_4 >= 22
 c168: x_1_2 - 3 z_1_0_2 - 8 z_1_1_2 + 6 z_1_2_3 + 8 z_1_2_4 >= 14
 c169: x_1_3 - 3 z_1_0_3 - 8 z_1_1_3 - 8 z_1_2_3 + 8 z_1_3_4 >= 8
 c170: x_1_4 - 3 z_1_0_4 - 8 z_1_1_4 - 8 z_1_2_4 - 6 z_1_3_4 >= 0
 c171: x_2_0 + 10 z_2_0_1 + 4 z_2_0_2 + 4 z_2_0_3 + 3 z_2_0_4 >= 21
 c172: x_2_1 - 2 z_2_0_1 + 4 z_2_1_2 + 4 z_2_1_3 + 3 z_2_1_4 >= 11
 c173: x_2_2 - 2 z_2_0_2 - 10 z_2_1_2 + 4 z_2_2_3 + 3 z_2_2_4 >= 7
 c174: x_2_3 - 2 z_2_0_3 - 10 z_2_1_3 - 4 z_2_2_3 + 3 z_2_3_4 >= 3
 c175: x_2_4 - 2 z_2_0_4 - 10 z_2_1_4 - 4 z_2_2_4 - 4 z_2_3_4 >= 0
 c176: x_0_1 - z_0_0_1 >= 0
 c177: x_0_0 + 13 z_0_0_1 >= 13
 c178: x_0_2 - z_0_0_2 >= 0
 c179: x_0_0 + 5 z_0_0_2 >= 5
 c180: x_0_2 - 13 z_0_1_2 >= 0
 c181: x_0_1 + 5 z_0_1_2 >= 5
 c182: x_0_3 - z_0_0_3 >= 0
 c183: x_0_0 + 14 z_0_0_3 >= 14
 c184: x_0_3 - 13 z_0_1_3 >= 0
 c185: x_0_1 + 14 z_0_1_3 >= 14
 c186: x_0_3 - 5 z_0_2_3 >= 0
 c187: x_0_2 + 14 z_0_2_3 >= 14
 c188: x_0_4 - z_0_0_4 >= 0
 c189: x_0_0 + 18 z_0_0_4 >= 18
 c190: x_0_4 - 13 z_0_1_4 >= 0
 c191: x_0_1 + 18 z_0_1_4 >= 18
 c192: x_0_4 - 5 z_0_2_4 >= 0
 c193: x_0_2 + 18 z_0_2_4 >= 18
 c194: x_0_4 - 14 z_0_3_4 >= 0
 c195: x_0_3 + 18 z_0_3_4 >= 18
 c196: x_1_1 - 4 z_1_0_1 >= 0
 c197: x_1_0 + 8 z_1_0_1 >= 8
 c198: x_1_2 - 4 z_1_0_2 >= 0
 c199: x_1_0 + 17 z_1_0_2 >= 17
 c200: x_1_2 - 8 z_1_1_2 >= 0
 c201: x_1_1 + 17 z_1_1_2 >= 17
 c202: x_1_3 - 4 z_1_0_3 >= 0
 c203: x_1_0 + 20 z_1_0_3 >= 20
 c204: x_1_3 - 8 z_1_1_3 >= 0
 c205: x_1_1 + 20 z_1_1_3 >= 20
 c206: x_1_3 - 17 z_1_2_3 >= 0
 c207: x_1_2 + 20 z_1_2_3 >= 20
 c208: x_1_4 - 4 z_1_0_4 >= 0
 c209: x_1_0 + 8 z_1_0_4 >= 8
 c210: x_1_4 - 8 z_1_1_4 >= 0
 c211: x_1_1 + 8 z_1_1_4 >= 8
 c212: x_1_4 - 17 z_1_2_4 >= 0
 c213: x_1_2 + 8 z_1_2_4 >= 8
 c214: x_1_4 - 20 z_1_3_4 >= 0
 c215: x_1_3 + 8 z_1_3_4 >= 8
 c216: x_2_1 - 6 z_2_0_1 >= 0
 c217: x_2_0 + 23 z_2_0_1 >= 23
 c218: x_2_2 - 6 z_2_0_2 >= 0
 c219: x_2_0 + 9 z_2_0_2 >= 9
 c220: x_2_2 - 23 z_2_1_2 >= 0
 c221: x_2_1 + 9 z_2_1_2 >= 9
 c222: x_2_3 - 6 z_2_0_3 >= 0
 c223: x_2_0 + 4 z_2_0_3 >= 4
 c224: x_2_3 - 23 z_2_1_3 >= 0
 c225: x_2_1 + 4 z_2_1_3 >= 4
 c226: x_2_3 - 9 z_2_2_3 >= 0
 c227: x_2_2 + 4 z_2_2_3 >= 4
 c228: x_2_4 - 6 z_2_0_4 >= 0
 c229: x_2_0 + 11 z_2_0_4 >= 11
 c230: x_2_4 - 23 z_2_1_4 >= 0
 c231: x_2_1 + 11 z_2_1_4 >= 11
 c232: x_2_4 - 9 z_2_2_4 >= 0
 c233: x_2_2 + 11 z_2_2_4 >= 11
 c234: x_2_4 - 4 z_2_3_4 >= 0
 c235: x_2_3 + 11 z_2_3_4 >= 11
 c236: cmax - x_0_0 - 15 z_0_0_1 >= 1
 c237: cmax - x_0_1 + 6 z_0_0_1 >= 11
 c238: cmax - x_0_0 - 17 z_0_0_2 >= 1
 c239: cmax - x_0_2 + 6 z_0_0_2 >= 11
 c240: cmax - x_0_0 - 16 z_0_0_3 >= 1
 c241: cmax - x_0_3 + 6 z_0_0_3 >= 16
 c242: cmax - x_0_0 - 7 z_0_0_4 >= 1
 c243: cmax - x_0_4 + 6 z_0_0_4 >= 13
 c244: cmax - x_0_1 - 17 z_0_1_2 >= 5
 c245: cmax - x_0_2 + 15 z_0_1_2 >= 20
 c246: cmax - x_0_1 - 16 z_0_1_3 >= 5
 c247: cmax - x_0_3 + 15 z_0_1_3 >= 25
 c248: cmax - x_0_1 - 7 z_0_1_4 >= 5
 c249: cmax - x_0_4 + 15 z_0_1_4 >= 22
 c250: cmax - x_0_2 - 16 z_0_2_3 >= 5
 c251: cmax - x_0_3 + 17 z_0_2_3 >= 27
 c252: cmax - x_0_2 - 7 z_0_2_4 >= 5
 c253: cmax - x_0_4 + 17 z_0_2_4 >= 24
 c254: cmax - x_0_3 - 7 z_0_3_4 >= 10
 c255: cmax - x_0_4 + 16 z_0_3_4 >= 23
 c256: cmax - x_1_0 - 23 z_1_0_1 >= 3
 c257: cmax - x_1_1 + 5 z_1_0_1 >= 13
 c258: cmax - x_1_0 - 8 z_1_0_2 >= 3
 c259: cmax - x_1_2 + 5 z_1_0_2 >= 13
 c260: cmax - x_1_0 - 6 z_1_0_3 >= 3
 c261: cmax - x_1_3 + 5 z_1_0_3 >= 11
 c262: cmax - x_1_0 - 18 z_1_0_4 >= 3
 c263: cmax - x_1_4 + 5 z_1_0_4 >= 13
 c264: cmax - x_1_1 - 8 z_1_1_2 >= 8
 c265: cmax - x_1_2 + 23 z_1_1_2 >= 31
 c266: cmax - x_1_1 - 6 z_1_1_3 >= 8
 c267: cmax - x_1_3 + 23 z_1_1_3 >= 29
 c268: cmax - x_1_1 - 18 z_1_1_4 >= 8
 c269: cmax - x_1_4 + 23 z_1_1_4 >= 31
 c270: cmax - x_1_2 - 6 z_1_2_3 >= 8
 c271: cmax - x_1_3 + 8 z_1_2_3 >= 14
 c272: cmax - x_1_2 - 18 z_1_2_4 >= 8
 c273: cmax - x_1_4 + 8 z_1_2_4 >= 16
 c274: cmax - x_1_3 - 18 z_1_3_4 >= 6
 c275: cmax - x_1_4 + 6 z_1_3_4 >= 14
 c276: cmax - x_2_0 - 10 z_2_0_1 >= 2
 c277: cmax - x_2_1 + 2 z_2_0_1 >= 12
 c278: cmax - x_2_0 - 12 z_2_0_2 >= 2
 c279: cmax - x_2_2 + 2 z_2_0_2 >= 6
 c280: cmax - x_2_0 - 20 z_2_0_3 >= 2
 c281: cmax - x_2_3 + 2 z_2_0_3 >= 6
 c282: cmax - x_2_0 - 10 z_2_0_4 >= 2
 c283: cmax - x_2_4 + 2 z_2_0_4 >= 5
 c284: cmax - x_2_1 - 12 z_2_1_2 >= 10
 c285: cmax - x_2_2 + 10 z_2_1_2 >= 14
 c286: cmax - x_2_1 - 20 z_2_1_3 >= 10
 c287: cmax - x_2_3 + 10 z_2_1_3 >= 14
 c288: cmax - x_2_1 - 10 z_2_1_4 >= 10
 c289: cmax - x_2_4 + 10 z_2_1_4 >= 13
 c290: cmax - x_2_2 - 20 z_2_2_3 >= 4
 c291: cmax - x_2_3 + 12 z_2_2_3 >= 16
 c292: cmax - x_2_2 - 10 z_2_2_4 >= 4
 c293: cmax - x_2_4 + 12 z_2_2_4 >= 15
 c294: cmax - x_2_3 - 10 z_2_3_4 >= 4
 c295: cmax - x_2_4 + 20 z_2_3_4 >= 23
 c296: cmax - x_0_0 >= 6
 c297: cmax - x_0_1 >= 15
 c298: cmax - x_0_2 >= 17
 c299: cmax - x_0_3 >= 16
 c300: cmax - x_0_4 >= 7
 c301: cmax - x_1_0 >= 5
 c302: cmax - x_1_1 >= 23
 c303: cmax - x_1_2 >= 8
 c304: cmax - x_1_3 >= 6
 c305: cmax - x_1_4 >= 18
 c306: cmax - x_2_0 >= 2
 c307: cmax - x_2_1 >= 10
 c308: cmax - x_2_2 >= 12
 c309: cmax - x_2_3 >= 20
 c310: cmax - x_2_4 >= 10

Bounds
       z_0_0_1 <= 1
       z_0_0_2 <= 1
       z_0_0_3 <= 1
       z_0_0_4 <= 1
       z_0_1_2 <= 1
       z_0_1_3 <= 1
       z_0_1_4 <= 1
       z_0_2_3 <= 1
       z_0_2_4 <= 1
       z_0_3_4 <= 1
       z_1_0_1 <= 1
       z_1_0_2 <= 1
       z_1_0_3 <= 1
       z_1_0_4 <= 1
       z_1_1_2 <= 1
       z_1_1_3 <= 1
       z_1_1_4 <= 1
       z_1_2_3 <= 1
       z_1_2_4 <= 1
       z_1_3_4 <= 1
       z_2_0_1 <= 1
       z_2_0_2 <= 1
       z_2_0_3 <= 1
       z_2_0_4 <= 1
       z_2_1_2 <= 1
       z_2_1_3 <= 1
       z_2_1_4 <= 1
       z_2_2_3 <= 1
       z_2_2_4 <= 1
       z_2_3_4 <= 1
 23 <= cmax
       s_0_2_0_1 <= 1
       s_0_3_0_1 <= 1
       s_0_4_0_1 <= 1
       s_0_1_0_2 <= 1
       s_0_3_0_2 <= 1
       s_0_4_0_2 <= 1
       s_0_1_0_3 <= 1
       s_0_2_0_3 <= 1
       s_0_4_0_3 <= 1
       s_0_1_0_4 <= 1
       s_0_2_0_4 <= 1
       s_0_3_0_4 <= 1
       s_0_0_1_2 <= 1
       s_0_3_1_2 <= 1
       s_0_4_1_2 <= 1
       s_0_0_1_3 <= 1
       s_0_2_1_3 <= 1
       s_0_4_1_3 <= 1
       s_0_0_1_4 <= 1
       s_0_2_1_4 <= 1
       s_0_3_1_4 <= 1
       s_0_0_2_3 <= 1
       s_0_1_2_3 <= 1
       s_0_4_2_3 <= 1
       s_0_0_2_4 <= 1
       s_0_1_2_4 <= 1
       s_0_3_2_4 <= 1
       s_0_0_3_4 <= 1
       s_0_1_3_4 <= 1
       s_0_2_3_4 <= 1
       s_1_2_0_1 <= 1
       s_1_3_0_1 <= 1
       s_1_4_0_1 <= 1
       s_1_1_0_2 <= 1
       s_1_3_0_2 <= 1
       s_1_4_0_2 <= 1
       s_1_1_0_3 <= 1
       s_1_2_0_3 <= 1
       s_1_4_0_3 <= 1
       s_1_1_0_4 <= 1
       s_1_2_0_4 <= 1
       s_1_3_0_4 <= 1
       s_1_0_1_2 <= 1
       s_1_3_1_2 <= 1
       s_1_4_1_2 <= 1
       s_1_0_1_3 <= 1
       s_1_2_1_3 <= 1
       s_1_4_1_3 <= 1
       s_1_0_1_4 <= 1
       s_1_2_1_4 <= 1
       s_1_3_1_4 <= 1
       s_1_0_2_3 <= 1
       s_1_1_2_3 <= 1
       s_1_4_2_3 <= 1
       s_1_0_2_4 <= 1
       s_1_1_2_4 <= 1
       s_1_3_2_4 <= 1
       s_1_0_3_4 <= 1
       s_1_1_3_4 <= 1
       s_1_2_3_4 <= 1
       s_2_2_0_1 <= 1
       s_2_3_0_1 <= 1
       s_2_4_0_1 <= 1
       s_2_1_0_2 <= 1
       s_2_3_0_2 <= 1
       s_2_4_0_2 <= 1
       s_2_1_0_3 <= 1
       s_2_2_0_3 <= 1
       s_2_4_0_3 <= 1
       s_2_1_0_4 <= 1
       s_2_2_0_4 <= 1
       s_2_3_0_4 <= 1
       s_2_0_1_2 <= 1
       s_2_3_1_2 <= 1
       s_2_4_1_2 <= 1
       s_2_0_1_3 <= 1
       s_2_2_1_3 <= 1
       s_2_4_1_3 <= 1
       s_2_0_1_4 <= 1
       s_2_2_1_4 <= 1
       s_2_3_1_4 <= 1
       s_2_0_2_3 <= 1
       s_2_1_2_3 <= 1
       s_2_4_2_3 <= 1
       s_2_0_2_4 <= 1
       s_2_1_2_4 <= 1
       s_2_3_2_4 <= 1
       s_2_0_3_4 <= 1
       s_2_1_3_4 <= 1
       s_2_2_3_4 <= 1
End
