logs/t_ID000M003J005_ZintFalse_minla_fav.txt
CPXPARAM_TimeLimit                               3600
CPXPARAM_Read_DataCheck                          1
Tried aggregator 1 time.
LP Presolve eliminated 71 rows and 60 columns.
Reduced LP has 239 rows, 76 columns, and 913 nonzeros.
Presolve time = 0.00 sec. (0.18 ticks)

Iteration log . . .
Iteration:     1   Dual objective     =            23.000000
Iteration:    62   Dual objective     =            28.299151
